Route #1: 59 31 50 26 35 21 7 36 40 39 44 49
Route #2: 46 47 63 2 58 54 5
Route #3: 30 17 14 27 1 28 43 12
Route #4: 62 19 20
Route #5: 15 11 57 3 53 48
Route #6: 9 34 4 55 37 23 51 45
Route #7: 42 32 8 16 60 24 61 13 52 41
Route #8: 18 22 38 29 25
Route #9: 10 56 33 6
Cost 1485.964363680417